# Objective value = 16
latency 16
start_g2 5
start_a4 1
start_i2 7
start_g3 6
start_a3 3
start_e4 2
start_j2 10
start_g1 11
start_h2 2
start_k 14
start_f2 11
start_h1 12
start_l 13
start_m 9
start_f3 1
start_c2 4
start_a1 8
start_d4 4
start_c4 3
start_b4 7
start_n 11
start_i1 14
start_o 15
start_c3 5
start_a2 6
start_f1 10
start_b3 7
start_h3 6
start_f4 5
start_d2 8
start_d1 9
start_c1 3
start_p 15
start_e1 10
start_b2 4
start_b1 8
start_d3 2
start_e3 13
start_e2 14
start_j1 15
start_q 16
used_AND_t1 0
used__OR_t1 1
used_NOT_t1 1
used_AND_t2 1
used__OR_t2 1
used_NOT_t2 1
used_AND_t3 1
used__OR_t3 1
used_NOT_t3 1
used_AND_t4 1
used__OR_t4 1
used_NOT_t4 1
used_AND_t5 1
used__OR_t5 1
used_NOT_t5 1
used_AND_t6 1
used__OR_t6 1
used_NOT_t6 1
used_AND_t7 1
used__OR_t7 1
used_NOT_t7 1
used_AND_t8 1
used__OR_t8 1
used_NOT_t8 1
used_AND_t9 1
used__OR_t9 0
used_NOT_t9 1
used_AND_t10 1
used__OR_t10 1
used_NOT_t10 1
used_AND_t11 1
used__OR_t11 1
used_NOT_t11 1
used_AND_t12 1
used__OR_t12 0
used_NOT_t12 0
used_AND_t13 1
used__OR_t13 0
used_NOT_t13 1
used_AND_t14 1
used__OR_t14 1
used_NOT_t14 1
used_AND_t15 1
used__OR_t15 1
used_NOT_t15 1
used_AND_t16 0
used__OR_t16 1
used_NOT_t16 0
used_AND_t17 0
used__OR_t17 0
used_NOT_t17 0
used_AND_t18 0
used__OR_t18 0
used_NOT_t18 0
x_g1_t1 0
x_h1_t1 0
x_a1_t1 0
x_i1_t1 0
x_c3_t1 0
x_f1_t1 0
x_b3_t1 0
x_h3_t1 0
x_d1_t1 0
x_c1_t1 0
x_b2_t1 0
x_d3_t1 0
x_e3_t1 0
x_j1_t1 0
x_g2_t1 0
x_h2_t1 0
x_i2_t1 0
x_a3_t1 0
x_j2_t1 0
x_f2_t1 0
x_f3_t1 1
x_c2_t1 0
x_a2_t1 0
x_d2_t1 0
x_p_t1 0
x_e2_t1 0
x_q_t1 0
x_a4_t1 1
x_g3_t1 0
x_e4_t1 0
x_k_t1 0
x_l_t1 0
x_m_t1 0
x_d4_t1 0
x_c4_t1 0
x_b4_t1 0
x_n_t1 0
x_o_t1 0
x_e1_t1 0
x_f4_t1 0
x_b1_t1 0
x_g1_t2 0
x_h1_t2 0
x_a1_t2 0
x_i1_t2 0
x_c3_t2 0
x_f1_t2 0
x_b3_t2 0
x_h3_t2 0
x_d1_t2 0
x_c1_t2 0
x_b2_t2 0
x_d3_t2 1
x_e3_t2 0
x_j1_t2 0
x_g2_t2 0
x_h2_t2 1
x_i2_t2 0
x_a3_t2 0
x_j2_t2 0
x_f2_t2 0
x_f3_t2 0
x_c2_t2 0
x_a2_t2 0
x_d2_t2 0
x_p_t2 0
x_e2_t2 0
x_q_t2 0
x_a4_t2 0
x_g3_t2 0
x_e4_t2 1
x_k_t2 0
x_l_t2 0
x_m_t2 0
x_d4_t2 0
x_c4_t2 0
x_b4_t2 0
x_n_t2 0
x_o_t2 0
x_e1_t2 0
x_f4_t2 0
x_b1_t2 0
x_g1_t3 0
x_h1_t3 0
x_a1_t3 0
x_i1_t3 0
x_c3_t3 0
x_f1_t3 0
x_b3_t3 0
x_h3_t3 0
x_d1_t3 0
x_c1_t3 1
x_b2_t3 0
x_d3_t3 0
x_e3_t3 0
x_j1_t3 0
x_g2_t3 0
x_h2_t3 0
x_i2_t3 0
x_a3_t3 1
x_j2_t3 0
x_f2_t3 0
x_f3_t3 0
x_c2_t3 0
x_a2_t3 0
x_d2_t3 0
x_p_t3 0
x_e2_t3 0
x_q_t3 0
x_a4_t3 0
x_g3_t3 0
x_e4_t3 0
x_k_t3 0
x_l_t3 0
x_m_t3 0
x_d4_t3 0
x_c4_t3 1
x_b4_t3 0
x_n_t3 0
x_o_t3 0
x_e1_t3 0
x_f4_t3 0
x_b1_t3 0
x_g1_t4 0
x_h1_t4 0
x_a1_t4 0
x_i1_t4 0
x_c3_t4 0
x_f1_t4 0
x_b3_t4 0
x_h3_t4 0
x_d1_t4 0
x_c1_t4 0
x_b2_t4 1
x_d3_t4 0
x_e3_t4 0
x_j1_t4 0
x_g2_t4 0
x_h2_t4 0
x_i2_t4 0
x_a3_t4 0
x_j2_t4 0
x_f2_t4 0
x_f3_t4 0
x_c2_t4 1
x_a2_t4 0
x_d2_t4 0
x_p_t4 0
x_e2_t4 0
x_q_t4 0
x_a4_t4 0
x_g3_t4 0
x_e4_t4 0
x_k_t4 0
x_l_t4 0
x_m_t4 0
x_d4_t4 1
x_c4_t4 0
x_b4_t4 0
x_n_t4 0
x_o_t4 0
x_e1_t4 0
x_f4_t4 0
x_b1_t4 0
x_g1_t5 0
x_h1_t5 0
x_a1_t5 0
x_i1_t5 0
x_c3_t5 1
x_f1_t5 0
x_b3_t5 0
x_h3_t5 0
x_d1_t5 0
x_c1_t5 0
x_b2_t5 0
x_d3_t5 0
x_e3_t5 0
x_j1_t5 0
x_g2_t5 1
x_h2_t5 0
x_i2_t5 0
x_a3_t5 0
x_j2_t5 0
x_f2_t5 0
x_f3_t5 0
x_c2_t5 0
x_a2_t5 0
x_d2_t5 0
x_p_t5 0
x_e2_t5 0
x_q_t5 0
x_a4_t5 0
x_g3_t5 0
x_e4_t5 0
x_k_t5 0
x_l_t5 0
x_m_t5 0
x_d4_t5 0
x_c4_t5 0
x_b4_t5 0
x_n_t5 0
x_o_t5 0
x_e1_t5 0
x_f4_t5 1
x_b1_t5 0
x_g1_t6 0
x_h1_t6 0
x_a1_t6 0
x_i1_t6 0
x_c3_t6 0
x_f1_t6 0
x_b3_t6 0
x_h3_t6 1
x_d1_t6 0
x_c1_t6 0
x_b2_t6 0
x_d3_t6 0
x_e3_t6 0
x_j1_t6 0
x_g2_t6 0
x_h2_t6 0
x_i2_t6 0
x_a3_t6 0
x_j2_t6 0
x_f2_t6 0
x_f3_t6 0
x_c2_t6 0
x_a2_t6 1
x_d2_t6 0
x_p_t6 0
x_e2_t6 0
x_q_t6 0
x_a4_t6 0
x_g3_t6 1
x_e4_t6 0
x_k_t6 0
x_l_t6 0
x_m_t6 0
x_d4_t6 0
x_c4_t6 0
x_b4_t6 0
x_n_t6 0
x_o_t6 0
x_e1_t6 0
x_f4_t6 0
x_b1_t6 0
x_g1_t7 0
x_h1_t7 0
x_a1_t7 0
x_i1_t7 0
x_c3_t7 0
x_f1_t7 0
x_b3_t7 1
x_h3_t7 0
x_d1_t7 0
x_c1_t7 0
x_b2_t7 0
x_d3_t7 0
x_e3_t7 0
x_j1_t7 0
x_g2_t7 0
x_h2_t7 0
x_i2_t7 1
x_a3_t7 0
x_j2_t7 0
x_f2_t7 0
x_f3_t7 0
x_c2_t7 0
x_a2_t7 0
x_d2_t7 0
x_p_t7 0
x_e2_t7 0
x_q_t7 0
x_a4_t7 0
x_g3_t7 0
x_e4_t7 0
x_k_t7 0
x_l_t7 0
x_m_t7 0
x_d4_t7 0
x_c4_t7 0
x_b4_t7 1
x_n_t7 0
x_o_t7 0
x_e1_t7 0
x_f4_t7 0
x_b1_t7 0
x_g1_t8 0
x_h1_t8 0
x_a1_t8 1
x_i1_t8 0
x_c3_t8 0
x_f1_t8 0
x_b3_t8 0
x_h3_t8 0
x_d1_t8 0
x_c1_t8 0
x_b2_t8 0
x_d3_t8 0
x_e3_t8 0
x_j1_t8 0
x_g2_t8 0
x_h2_t8 0
x_i2_t8 0
x_a3_t8 0
x_j2_t8 0
x_f2_t8 0
x_f3_t8 0
x_c2_t8 0
x_a2_t8 0
x_d2_t8 1
x_p_t8 0
x_e2_t8 0
x_q_t8 0
x_a4_t8 0
x_g3_t8 0
x_e4_t8 0
x_k_t8 0
x_l_t8 0
x_m_t8 0
x_d4_t8 0
x_c4_t8 0
x_b4_t8 0
x_n_t8 0
x_o_t8 0
x_e1_t8 0
x_f4_t8 0
x_b1_t8 1
x_g1_t9 0
x_h1_t9 0
x_a1_t9 0
x_i1_t9 0
x_c3_t9 0
x_f1_t9 0
x_b3_t9 0
x_h3_t9 0
x_d1_t9 1
x_c1_t9 0
x_b2_t9 0
x_d3_t9 0
x_e3_t9 0
x_j1_t9 0
x_g2_t9 0
x_h2_t9 0
x_i2_t9 0
x_a3_t9 0
x_j2_t9 0
x_f2_t9 0
x_f3_t9 0
x_c2_t9 0
x_a2_t9 0
x_d2_t9 0
x_p_t9 0
x_e2_t9 0
x_q_t9 0
x_a4_t9 0
x_g3_t9 0
x_e4_t9 0
x_k_t9 0
x_l_t9 0
x_m_t9 1
x_d4_t9 0
x_c4_t9 0
x_b4_t9 0
x_n_t9 0
x_o_t9 0
x_e1_t9 0
x_f4_t9 0
x_b1_t9 0
x_g1_t10 0
x_h1_t10 0
x_a1_t10 0
x_i1_t10 0
x_c3_t10 0
x_f1_t10 1
x_b3_t10 0
x_h3_t10 0
x_d1_t10 0
x_c1_t10 0
x_b2_t10 0
x_d3_t10 0
x_e3_t10 0
x_j1_t10 0
x_g2_t10 0
x_h2_t10 0
x_i2_t10 0
x_a3_t10 0
x_j2_t10 1
x_f2_t10 0
x_f3_t10 0
x_c2_t10 0
x_a2_t10 0
x_d2_t10 0
x_p_t10 0
x_e2_t10 0
x_q_t10 0
x_a4_t10 0
x_g3_t10 0
x_e4_t10 0
x_k_t10 0
x_l_t10 0
x_m_t10 0
x_d4_t10 0
x_c4_t10 0
x_b4_t10 0
x_n_t10 0
x_o_t10 0
x_e1_t10 1
x_f4_t10 0
x_b1_t10 0
x_g1_t11 1
x_h1_t11 0
x_a1_t11 0
x_i1_t11 0
x_c3_t11 0
x_f1_t11 0
x_b3_t11 0
x_h3_t11 0
x_d1_t11 0
x_c1_t11 0
x_b2_t11 0
x_d3_t11 0
x_e3_t11 0
x_j1_t11 0
x_g2_t11 0
x_h2_t11 0
x_i2_t11 0
x_a3_t11 0
x_j2_t11 0
x_f2_t11 1
x_f3_t11 0
x_c2_t11 0
x_a2_t11 0
x_d2_t11 0
x_p_t11 0
x_e2_t11 0
x_q_t11 0
x_a4_t11 0
x_g3_t11 0
x_e4_t11 0
x_k_t11 0
x_l_t11 0
x_m_t11 0
x_d4_t11 0
x_c4_t11 0
x_b4_t11 0
x_n_t11 1
x_o_t11 0
x_e1_t11 0
x_f4_t11 0
x_b1_t11 0
x_g1_t12 0
x_h1_t12 1
x_a1_t12 0
x_i1_t12 0
x_c3_t12 0
x_f1_t12 0
x_b3_t12 0
x_h3_t12 0
x_d1_t12 0
x_c1_t12 0
x_b2_t12 0
x_d3_t12 0
x_e3_t12 0
x_j1_t12 0
x_g2_t12 0
x_h2_t12 0
x_i2_t12 0
x_a3_t12 0
x_j2_t12 0
x_f2_t12 0
x_f3_t12 0
x_c2_t12 0
x_a2_t12 0
x_d2_t12 0
x_p_t12 0
x_e2_t12 0
x_q_t12 0
x_a4_t12 0
x_g3_t12 0
x_e4_t12 0
x_k_t12 0
x_l_t12 0
x_m_t12 0
x_d4_t12 0
x_c4_t12 0
x_b4_t12 0
x_n_t12 0
x_o_t12 0
x_e1_t12 0
x_f4_t12 0
x_b1_t12 0
x_g1_t13 0
x_h1_t13 0
x_a1_t13 0
x_i1_t13 0
x_c3_t13 0
x_f1_t13 0
x_b3_t13 0
x_h3_t13 0
x_d1_t13 0
x_c1_t13 0
x_b2_t13 0
x_d3_t13 0
x_e3_t13 1
x_j1_t13 0
x_g2_t13 0
x_h2_t13 0
x_i2_t13 0
x_a3_t13 0
x_j2_t13 0
x_f2_t13 0
x_f3_t13 0
x_c2_t13 0
x_a2_t13 0
x_d2_t13 0
x_p_t13 0
x_e2_t13 0
x_q_t13 0
x_a4_t13 0
x_g3_t13 0
x_e4_t13 0
x_k_t13 0
x_l_t13 1
x_m_t13 0
x_d4_t13 0
x_c4_t13 0
x_b4_t13 0
x_n_t13 0
x_o_t13 0
x_e1_t13 0
x_f4_t13 0
x_b1_t13 0
x_g1_t14 0
x_h1_t14 0
x_a1_t14 0
x_i1_t14 1
x_c3_t14 0
x_f1_t14 0
x_b3_t14 0
x_h3_t14 0
x_d1_t14 0
x_c1_t14 0
x_b2_t14 0
x_d3_t14 0
x_e3_t14 0
x_j1_t14 0
x_g2_t14 0
x_h2_t14 0
x_i2_t14 0
x_a3_t14 0
x_j2_t14 0
x_f2_t14 0
x_f3_t14 0
x_c2_t14 0
x_a2_t14 0
x_d2_t14 0
x_p_t14 0
x_e2_t14 1
x_q_t14 0
x_a4_t14 0
x_g3_t14 0
x_e4_t14 0
x_k_t14 1
x_l_t14 0
x_m_t14 0
x_d4_t14 0
x_c4_t14 0
x_b4_t14 0
x_n_t14 0
x_o_t14 0
x_e1_t14 0
x_f4_t14 0
x_b1_t14 0
x_g1_t15 0
x_h1_t15 0
x_a1_t15 0
x_i1_t15 0
x_c3_t15 0
x_f1_t15 0
x_b3_t15 0
x_h3_t15 0
x_d1_t15 0
x_c1_t15 0
x_b2_t15 0
x_d3_t15 0
x_e3_t15 0
x_j1_t15 1
x_g2_t15 0
x_h2_t15 0
x_i2_t15 0
x_a3_t15 0
x_j2_t15 0
x_f2_t15 0
x_f3_t15 0
x_c2_t15 0
x_a2_t15 0
x_d2_t15 0
x_p_t15 1
x_e2_t15 0
x_q_t15 0
x_a4_t15 0
x_g3_t15 0
x_e4_t15 0
x_k_t15 0
x_l_t15 0
x_m_t15 0
x_d4_t15 0
x_c4_t15 0
x_b4_t15 0
x_n_t15 0
x_o_t15 1
x_e1_t15 0
x_f4_t15 0
x_b1_t15 0
x_g1_t16 0
x_h1_t16 0
x_a1_t16 0
x_i1_t16 0
x_c3_t16 0
x_f1_t16 0
x_b3_t16 0
x_h3_t16 0
x_d1_t16 0
x_c1_t16 0
x_b2_t16 0
x_d3_t16 0
x_e3_t16 0
x_j1_t16 0
x_g2_t16 0
x_h2_t16 0
x_i2_t16 0
x_a3_t16 0
x_j2_t16 0
x_f2_t16 0
x_f3_t16 0
x_c2_t16 0
x_a2_t16 0
x_d2_t16 0
x_p_t16 0
x_e2_t16 0
x_q_t16 1
x_a4_t16 0
x_g3_t16 0
x_e4_t16 0
x_k_t16 0
x_l_t16 0
x_m_t16 0
x_d4_t16 0
x_c4_t16 0
x_b4_t16 0
x_n_t16 0
x_o_t16 0
x_e1_t16 0
x_f4_t16 0
x_b1_t16 0
x_g1_t17 0
x_h1_t17 0
x_a1_t17 0
x_i1_t17 0
x_c3_t17 0
x_f1_t17 0
x_b3_t17 0
x_h3_t17 0
x_d1_t17 0
x_c1_t17 0
x_b2_t17 0
x_d3_t17 0
x_e3_t17 0
x_j1_t17 0
x_g2_t17 0
x_h2_t17 0
x_i2_t17 0
x_a3_t17 0
x_j2_t17 0
x_f2_t17 0
x_f3_t17 0
x_c2_t17 0
x_a2_t17 0
x_d2_t17 0
x_p_t17 0
x_e2_t17 0
x_q_t17 0
x_a4_t17 0
x_g3_t17 0
x_e4_t17 0
x_k_t17 0
x_l_t17 0
x_m_t17 0
x_d4_t17 0
x_c4_t17 0
x_b4_t17 0
x_n_t17 0
x_o_t17 0
x_e1_t17 0
x_f4_t17 0
x_b1_t17 0
x_g1_t18 0
x_h1_t18 0
x_a1_t18 0
x_i1_t18 0
x_c3_t18 0
x_f1_t18 0
x_b3_t18 0
x_h3_t18 0
x_d1_t18 0
x_c1_t18 0
x_b2_t18 0
x_d3_t18 0
x_e3_t18 0
x_j1_t18 0
x_g2_t18 0
x_h2_t18 0
x_i2_t18 0
x_a3_t18 0
x_j2_t18 0
x_f2_t18 0
x_f3_t18 0
x_c2_t18 0
x_a2_t18 0
x_d2_t18 0
x_p_t18 0
x_e2_t18 0
x_q_t18 0
x_a4_t18 0
x_g3_t18 0
x_e4_t18 0
x_k_t18 0
x_l_t18 0
x_m_t18 0
x_d4_t18 0
x_c4_t18 0
x_b4_t18 0
x_n_t18 0
x_o_t18 0
x_e1_t18 0
x_f4_t18 0
x_b1_t18 0
